0 0 0 0
0 1 0 0
0 2 0 0
0 3 0 0
0 4 0 8
0 5 0 16
0 6 0 7
0 7 0 16
0 8 0 26
0 9 0 63
0 10 0 24
0 11 0 32
0 12 0 32
0 13 0 24
0 14 0 31
0 15 0 35
0 16 0 36
0 17 0 40
0 18 0 34
0 19 0 36
0 20 0 42
0 21 0 16
0 22 0 39
0 23 0 51
0 24 0 15
0 25 0 4
0 26 0 43
0 27 0 10
0 28 0 51
0 29 0 5
0 30 0 19
0 31 0 16
0 32 0 5
0 33 0 36
0 34 0 52
0 35 0 31
0 36 0 21
0 37 0 60
0 38 0 67
0 39 0 56
0 40 0 46
0 41 0 42
0 42 0 46
0 43 0 55
0 44 0 17
0 45 0 44
0 46 0 55
0 47 0 7
0 48 0 84
0 49 0 66
0 50 0 60
0 51 0 43
0 52 0 79
0 53 0 59
0 54 0 69
0 55 0 85
0 56 0 65
0 57 0 65
0 58 0 76
0 59 0 76
0 60 0 45
0 61 0 74
0 62 0 4
0 63 0 47
0 64 0 53
0 65 0 57
0 66 0 81
0 67 0 77
0 68 0 32
0 69 0 94
0 70 0 26
0 71 0 39
0 72 0 78
0 73 0 63
0 74 0 65
0 75 0 47
0 76 0 24
0 77 0 19
0 78 0 60
0 79 0 81
0 80 0 89
0 81 0 57
0 82 0 80
0 83 0 87
0 84 0 66
0 85 0 77
0 86 0 87
0 87 0 45
0 88 0 43
0 89 0 90
0 90 0 82
0 91 0 93
0 92 0 69
0 93 0 72
0 94 0 63
0 95 0 86
0 96 0 79
0 97 0 47
0 98 0 103
0 99 0 98
0 100 0 98
0 101 0 86
0 102 0 96
0 103 0 105
0 104 0 103
0 105 0 96
0 106 0 35
0 107 0 95
0 108 0 72
0 109 0 37
0 110 0 95
0 111 0 96
0 112 0 91
0 113 0 100
0 114 0 103
0 115 0 104
0 116 0 104
0 117 0 100
0 118 0 109
0 119 0 107
0 120 0 107
0 121 0 116
